<?xml version = "1.0" encoding="UTF-8" standalone="yes"?>
<CPLEXSolution version="1.2">
 <header
   problemName="IloCplex"
   solutionName="p0"
   solutionIndex="-1"
   objectiveValue="39425006"
   solutionTypeValue="3"
   solutionTypeString="primal"
   solutionStatusValue="127"
   solutionStatusString="integer feasible solution"
   solutionMethodString="mip"
   primalFeasible="0"
   dualFeasible="0"
   writeLevel="3"/>
 <quality
   epInt="1.0000000000000001e-05"
   epRHS="9.9999999999999995e-07"
   maxIntInfeas="0"
   maxPrimalInfeas="0"
   maxX="1"
   maxSlack="1"/>
 <variables>
  <variable name="w0_0" index="0" value="1"/>
  <variable name="w0_1" index="1" value="1"/>
  <variable name="w0_3" index="3" value="1"/>
  <variable name="w0_5" index="5" value="1"/>
  <variable name="w0_6" index="6" value="1"/>
  <variable name="w0_9" index="9" value="1"/>
  <variable name="w0_12" index="12" value="1"/>
  <variable name="w0_13" index="13" value="1"/>
  <variable name="w0_14" index="14" value="1"/>
  <variable name="w2_0" index="30" value="1"/>
  <variable name="w2_1" index="31" value="1"/>
  <variable name="w2_3" index="33" value="1"/>
  <variable name="w2_5" index="35" value="1"/>
  <variable name="w2_6" index="36" value="1"/>
  <variable name="w2_9" index="39" value="1"/>
  <variable name="w2_12" index="42" value="1"/>
  <variable name="w2_13" index="43" value="1"/>
  <variable name="w2_14" index="44" value="1"/>
  <variable name="w3_0" index="45" value="1"/>
  <variable name="w3_1" index="46" value="1"/>
  <variable name="w3_3" index="48" value="1"/>
  <variable name="w3_5" index="50" value="1"/>
  <variable name="w3_6" index="51" value="1"/>
  <variable name="w3_9" index="54" value="1"/>
  <variable name="w3_12" index="57" value="1"/>
  <variable name="w3_13" index="58" value="1"/>
  <variable name="w3_14" index="59" value="1"/>
  <variable name="w4_0" index="60" value="1"/>
  <variable name="w4_1" index="61" value="1"/>
  <variable name="w4_3" index="63" value="1"/>
  <variable name="w4_5" index="65" value="1"/>
  <variable name="w4_6" index="66" value="1"/>
  <variable name="w4_9" index="69" value="1"/>
  <variable name="w4_12" index="72" value="1"/>
  <variable name="w4_13" index="73" value="1"/>
  <variable name="w4_14" index="74" value="1"/>
  <variable name="w5_0" index="75" value="1"/>
  <variable name="w5_1" index="76" value="1"/>
  <variable name="w5_3" index="78" value="1"/>
  <variable name="w5_5" index="80" value="1"/>
  <variable name="w5_6" index="81" value="1"/>
  <variable name="w5_9" index="84" value="1"/>
  <variable name="w5_12" index="87" value="1"/>
  <variable name="w5_13" index="88" value="1"/>
  <variable name="w5_14" index="89" value="1"/>
  <variable name="w10_0" index="150" value="1"/>
  <variable name="w10_1" index="151" value="1"/>
  <variable name="w10_3" index="153" value="1"/>
  <variable name="w10_5" index="155" value="1"/>
  <variable name="w10_6" index="156" value="1"/>
  <variable name="w10_9" index="159" value="1"/>
  <variable name="w10_12" index="162" value="1"/>
  <variable name="w10_13" index="163" value="1"/>
  <variable name="w10_14" index="164" value="1"/>
  <variable name="w11_0" index="165" value="1"/>
  <variable name="w11_1" index="166" value="1"/>
  <variable name="w11_3" index="168" value="1"/>
  <variable name="w11_5" index="170" value="1"/>
  <variable name="w11_6" index="171" value="1"/>
  <variable name="w11_9" index="174" value="1"/>
  <variable name="w11_12" index="177" value="1"/>
  <variable name="w11_13" index="178" value="1"/>
  <variable name="w11_14" index="179" value="1"/>
  <variable name="x0_411" index="636" value="1"/>
  <variable name="x1_209" index="1034" value="1"/>
  <variable name="x2_279" index="1704" value="1"/>
  <variable name="x3_97" index="2122" value="1"/>
  <variable name="x4_47" index="2672" value="1"/>
  <variable name="x5_517" index="3742" value="1"/>
  <variable name="x6_288" index="4113" value="1"/>
  <variable name="x7_370" index="4795" value="1"/>
  <variable name="x8_163" index="5188" value="1"/>
  <variable name="x9_274" index="5899" value="1"/>
  <variable name="x10_60" index="6285" value="1"/>
  <variable name="x11_537" index="7362" value="1"/>
  <variable name="x12_551" index="7976" value="1"/>
  <variable name="x13_87" index="8112" value="1"/>
  <variable name="x14_293" index="8918" value="1"/>
  <variable name="x15_439" index="9664" value="1"/>
  <variable name="x16_162" index="9987" value="1"/>
  <variable name="x17_226" index="10651" value="1"/>
  <variable name="x18_190" index="11215" value="1"/>
  <variable name="x19_99" index="11724" value="1"/>
  <variable name="x20_247" index="12472" value="1"/>
  <variable name="x21_326" index="13151" value="1"/>
  <variable name="x22_104" index="13529" value="1"/>
  <variable name="x23_400" index="14425" value="1"/>
  <variable name="x24_408" index="15033" value="1"/>
  <variable name="x25_425" index="15650" value="1"/>
  <variable name="x26_429" index="16254" value="1"/>
  <variable name="x27_311" index="16736" value="1"/>
  <variable name="x28_375" index="17400" value="1"/>
  <variable name="x29_178" index="17803" value="1"/>
  <variable name="x30_487" index="18712" value="1"/>
  <variable name="x31_148" index="18973" value="1"/>
  <variable name="x32_456" index="19881" value="1"/>
  <variable name="x33_354" index="20379" value="1"/>
  <variable name="x34_70" index="20695" value="1"/>
  <variable name="x35_262" index="21487" value="1"/>
  <variable name="x36_581" index="22406" value="1"/>
  <variable name="x37_331" index="22756" value="1"/>
  <variable name="x38_249" index="23274" value="1"/>
  <variable name="x39_474" index="24099" value="1"/>
  <variable name="x40_395" index="24620" value="1"/>
  <variable name="x41_518" index="25343" value="1"/>
  <variable name="x42_290" index="25715" value="1"/>
  <variable name="x43_140" index="26165" value="1"/>
  <variable name="x44_368" index="26993" value="1"/>
  <variable name="x45_135" index="27360" value="1"/>
  <variable name="x46_556" index="28381" value="1"/>
  <variable name="x47_469" index="28894" value="1"/>
  <variable name="x48_126" index="29151" value="1"/>
  <variable name="x49_342" index="29967" value="1"/>
  <variable name="x50_76" index="30301" value="1"/>
  <variable name="x51_401" index="31226" value="1"/>
  <variable name="x52_19" index="31444" value="1"/>
  <variable name="x53_465" index="32490" value="1"/>
  <variable name="x54_211" index="32836" value="1"/>
  <variable name="x55_45" index="33270" value="1"/>
  <variable name="x56_229" index="34054" value="1"/>
  <variable name="x57_277" index="34702" value="1"/>
  <variable name="x58_380" index="35405" value="1"/>
  <variable name="x59_307" index="35932" value="1"/>
  <variable name="x60_96" index="36321" value="1"/>
  <variable name="x61_251" index="37076" value="1"/>
  <variable name="x62_333" index="37758" value="1"/>
  <variable name="x63_339" index="38364" value="1"/>
  <variable name="x64_512" index="39137" value="1"/>
  <variable name="x65_292" index="39517" value="1"/>
  <variable name="x66_365" index="40190" value="1"/>
  <variable name="x67_152" index="40577" value="1"/>
  <variable name="x68_171" index="41196" value="1"/>
  <variable name="x69_553" index="42178" value="1"/>
  <variable name="x70_360" index="42585" value="1"/>
  <variable name="x71_259" index="43084" value="1"/>
  <variable name="x72_257" index="43682" value="1"/>
  <variable name="x73_239" index="44264" value="1"/>
  <variable name="x74_250" index="44875" value="1"/>
  <variable name="x75_51" index="45276" value="1"/>
  <variable name="x76_1" index="45826" value="1"/>
  <variable name="x77_270" index="46695" value="1"/>
  <variable name="x78_478" index="47503" value="1"/>
  <variable name="x79_410" index="48035" value="1"/>
  <variable name="x80_37" index="48262" value="1"/>
  <variable name="x81_388" index="49213" value="1"/>
  <variable name="x82_88" index="49513" value="1"/>
  <variable name="x83_582" index="50607" value="1"/>
  <variable name="x84_483" index="51108" value="1"/>
  <variable name="x85_107" index="51332" value="1"/>
  <variable name="x86_419" index="52244" value="1"/>
  <variable name="x87_117" index="52542" value="1"/>
  <variable name="x88_213" index="53238" value="1"/>
  <variable name="x89_540" index="54165" value="1"/>
  <variable name="x90_464" index="54689" value="1"/>
  <variable name="x91_371" index="55196" value="1"/>
  <variable name="x92_242" index="55667" value="1"/>
  <variable name="x93_514" index="56539" value="1"/>
  <variable name="x94_48" index="56673" value="1"/>
  <variable name="x95_89" index="57314" value="1"/>
  <variable name="x96_475" index="58300" value="1"/>
  <variable name="x97_346" index="58771" value="1"/>
  <variable name="x98_241" index="59266" value="1"/>
  <variable name="x99_62" index="59687" value="1"/>
  <variable name="x100_352" index="60577" value="1"/>
  <variable name="x101_353" index="61178" value="1"/>
  <variable name="x102_158" index="61583" value="1"/>
  <variable name="x103_166" index="62191" value="1"/>
  <variable name="x104_577" index="63202" value="1"/>
  <variable name="x105_324" index="63549" value="1"/>
  <variable name="x106_278" index="64103" value="1"/>
  <variable name="x107_345" index="64770" value="1"/>
  <variable name="x108_134" index="65159" value="1"/>
  <variable name="x109_528" index="66153" value="1"/>
  <variable name="x110_377" index="66602" value="1"/>
  <variable name="x111_246" index="67071" value="1"/>
  <variable name="x112_125" index="67550" value="1"/>
  <variable name="x113_426" index="68451" value="1"/>
  <variable name="x114_86" index="68711" value="1"/>
  <variable name="x115_289" index="69514" value="1"/>
  <variable name="x116_306" index="70131" value="1"/>
  <variable name="x117_313" index="70738" value="1"/>
  <variable name="x118_183" index="71208" value="1"/>
  <variable name="x119_50" index="71675" value="1"/>
  <variable name="x120_525" index="72750" value="1"/>
  <variable name="x121_390" index="73215" value="1"/>
  <variable name="x122_421" index="73846" value="1"/>
  <variable name="x123_598" index="74623" value="1"/>
  <variable name="x124_491" index="75116" value="1"/>
  <variable name="x125_405" index="75630" value="1"/>
  <variable name="x126_485" index="76310" value="1"/>
  <variable name="x127_446" index="76871" value="1"/>
  <variable name="x128_453" index="77478" value="1"/>
  <variable name="x129_509" index="78134" value="1"/>
  <variable name="x130_184" index="78409" value="1"/>
  <variable name="x131_9" index="78834" value="1"/>
  <variable name="x132_72" index="79497" value="1"/>
  <variable name="x133_477" index="80502" value="1"/>
  <variable name="x134_575" index="81200" value="1"/>
  <variable name="x135_273" index="81498" value="1"/>
  <variable name="x136_94" index="81919" value="1"/>
  <variable name="x137_212" index="82637" value="1"/>
  <variable name="x138_25" index="83050" value="1"/>
  <variable name="x139_459" index="84084" value="1"/>
  <variable name="x140_28" index="84253" value="1"/>
  <variable name="x141_359" index="85184" value="1"/>
  <variable name="x142_460" index="85885" value="1"/>
  <variable name="x143_535" index="86560" value="1"/>
  <variable name="x144_486" index="87111" value="1"/>
  <variable name="x145_75" index="87300" value="1"/>
  <variable name="x146_10" index="87835" value="1"/>
  <variable name="x147_490" index="88915" value="1"/>
  <variable name="x148_516" index="89541" value="1"/>
  <variable name="x149_593" index="90218" value="1"/>
  <variable name="x150_335" index="90560" value="1"/>
  <variable name="x151_595" index="91420" value="1"/>
  <variable name="x152_330" index="91755" value="1"/>
  <variable name="x153_256" index="92281" value="1"/>
  <variable name="x154_494" index="93119" value="1"/>
  <variable name="x155_387" index="93612" value="1"/>
  <variable name="x156_268" index="94093" value="1"/>
  <variable name="x157_526" index="94951" value="1"/>
  <variable name="x158_17" index="95042" value="1"/>
  <variable name="x159_479" index="96104" value="1"/>
  <variable name="x160_520" index="96745" value="1"/>
  <variable name="x161_549" index="97374" value="1"/>
  <variable name="x162_195" index="97620" value="1"/>
  <variable name="x163_437" index="98462" value="1"/>
  <variable name="x164_123" index="98748" value="1"/>
  <variable name="x165_244" index="99469" value="1"/>
  <variable name="x166_588" index="100413" value="1"/>
  <variable name="x167_149" index="100574" value="1"/>
  <variable name="x168_74" index="101099" value="1"/>
  <variable name="x169_319" index="101944" value="1"/>
  <variable name="x170_361" index="102586" value="1"/>
  <variable name="x171_31" index="102856" value="1"/>
  <variable name="x172_159" index="103584" value="1"/>
  <variable name="x173_344" index="104369" value="1"/>
  <variable name="x174_98" index="104723" value="1"/>
  <variable name="x175_172" index="105397" value="1"/>
  <variable name="x176_73" index="105898" value="1"/>
  <variable name="x177_562" index="106987" value="1"/>
  <variable name="x178_224" index="107249" value="1"/>
  <variable name="x179_91" index="107716" value="1"/>
  <variable name="x180_524" index="108749" value="1"/>
  <variable name="x181_208" index="109033" value="1"/>
  <variable name="x182_238" index="109663" value="1"/>
  <variable name="x183_550" index="110575" value="1"/>
  <variable name="x184_447" index="111072" value="1"/>
  <variable name="x185_153" index="111378" value="1"/>
  <variable name="x186_264" index="112089" value="1"/>
  <variable name="x187_532" index="112957" value="1"/>
  <variable name="x188_235" index="113260" value="1"/>
  <variable name="x189_434" index="114059" value="1"/>
  <variable name="x190_427" index="114652" value="1"/>
  <variable name="x191_161" index="114986" value="1"/>
  <variable name="x192_103" index="115528" value="1"/>
  <variable name="x193_144" index="116169" value="1"/>
  <variable name="x194_515" index="117140" value="1"/>
  <variable name="x195_496" index="117721" value="1"/>
  <variable name="x196_108" index="117933" value="1"/>
  <variable name="x197_298" index="118723" value="1"/>
  <variable name="x198_471" index="119496" value="1"/>
  <variable name="x199_41" index="119666" value="1"/>
  <variable name="x200_121" index="120346" value="1"/>
  <variable name="x201_118" index="120943" value="1"/>
  <variable name="x202_168" index="121593" value="1"/>
  <variable name="x203_150" index="122175" value="1"/>
  <variable name="x204_317" index="122942" value="1"/>
  <variable name="x205_347" index="123572" value="1"/>
  <variable name="x206_287" index="124112" value="1"/>
  <variable name="x207_2" index="124427" value="1"/>
  <variable name="x208_6" index="125031" value="1"/>
  <variable name="x209_349" index="125974" value="1"/>
  <variable name="x210_367" index="126592" value="1"/>
  <variable name="x211_66" index="126891" value="1"/>
  <variable name="x212_215" index="127640" value="1"/>
  <variable name="x213_69" index="128094" value="1"/>
  <variable name="x214_38" index="128663" value="1"/>
  <variable name="x215_283" index="129508" value="1"/>
  <variable name="x216_154" index="129979" value="1"/>
  <variable name="x217_22" index="130447" value="1"/>
  <variable name="x218_597" index="131622" value="1"/>
  <variable name="x219_508" index="132133" value="1"/>
  <variable name="x220_46" index="132271" value="1"/>
  <variable name="x221_592" index="133417" value="1"/>
  <variable name="x222_186" index="133611" value="1"/>
  <variable name="x223_385" index="134410" value="1"/>
  <variable name="x224_422" index="135047" value="1"/>
  <variable name="x225_137" index="135362" value="1"/>
  <variable name="x226_312" index="136137" value="1"/>
  <variable name="x227_181" index="136606" value="1"/>
  <variable name="x228_180" index="137205" value="1"/>
  <variable name="x229_416" index="138041" value="1"/>
  <variable name="x230_452" index="138677" value="1"/>
  <variable name="x231_265" index="139090" value="1"/>
  <variable name="x232_555" index="139980" value="1"/>
  <variable name="x233_43" index="140068" value="1"/>
  <variable name="x234_533" index="141158" value="1"/>
  <variable name="x235_568" index="141793" value="1"/>
  <variable name="x236_214" index="142039" value="1"/>
  <variable name="x237_29" index="142454" value="1"/>
  <variable name="x238_61" index="143086" value="1"/>
  <variable name="x239_100" index="143725" value="1"/>
  <variable name="x240_599" index="144824" value="1"/>
  <variable name="x241_384" index="145209" value="1"/>
  <variable name="x242_34" index="145459" value="1"/>
  <variable name="x243_430" index="146455" value="1"/>
  <variable name="x244_454" index="147079" value="1"/>
  <variable name="x245_101" index="147326" value="1"/>
  <variable name="x246_428" index="148253" value="1"/>
  <variable name="x247_579" index="149004" value="1"/>
  <variable name="x248_176" index="149201" value="1"/>
  <variable name="x249_197" index="149822" value="1"/>
  <variable name="x250_230" index="150455" value="1"/>
  <variable name="x251_36" index="150861" value="1"/>
  <variable name="x252_570" index="151995" value="1"/>
  <variable name="x253_15" index="152040" value="1"/>
  <variable name="x254_431" index="153056" value="1"/>
  <variable name="x255_281" index="153506" value="1"/>
  <variable name="x256_341" index="154166" value="1"/>
  <variable name="x257_56" index="154481" value="1"/>
  <variable name="x258_476" index="155501" value="1"/>
  <variable name="x259_55" index="155680" value="1"/>
  <variable name="x260_95" index="156320" value="1"/>
  <variable name="x261_200" index="157025" value="1"/>
  <variable name="x262_263" index="157688" value="1"/>
  <variable name="x263_297" index="158322" value="1"/>
  <variable name="x264_391" index="159016" value="1"/>
  <variable name="x265_565" index="159790" value="1"/>
  <variable name="x266_379" index="160204" value="1"/>
  <variable name="x267_489" index="160914" value="1"/>
  <variable name="x268_57" index="161082" value="1"/>
  <variable name="x269_457" index="162082" value="1"/>
  <variable name="x270_583" index="162808" value="1"/>
  <variable name="x271_523" index="163348" value="1"/>
  <variable name="x272_174" index="163599" value="1"/>
  <variable name="x273_222" index="164247" value="1"/>
  <variable name="x274_105" index="164730" value="1"/>
  <variable name="x275_102" index="165327" value="1"/>
  <variable name="x276_35" index="165860" value="1"/>
  <variable name="x277_578" index="167003" value="1"/>
  <variable name="x278_498" index="167523" value="1"/>
  <variable name="x279_462" index="168087" value="1"/>
  <variable name="x280_374" index="168599" value="1"/>
  <variable name="x281_269" index="169094" value="1"/>
  <variable name="x282_5" index="169430" value="1"/>
  <variable name="x283_245" index="170270" value="1"/>
  <variable name="x284_393" index="171018" value="1"/>
  <variable name="x285_468" index="171693" value="1"/>
  <variable name="x286_382" index="172207" value="1"/>
  <variable name="x287_93" index="172518" value="1"/>
  <variable name="x288_403" index="173428" value="1"/>
  <variable name="x289_495" index="174120" value="1"/>
  <variable name="x290_225" index="174450" value="1"/>
  <variable name="x291_58" index="174883" value="1"/>
  <variable name="x292_21" index="175446" value="1"/>
  <variable name="x293_231" index="176256" value="1"/>
  <variable name="x294_4" index="176629" value="1"/>
  <variable name="x295_418" index="177643" value="1"/>
  <variable name="x296_194" index="178019" value="1"/>
  <variable name="x297_376" index="178801" value="1"/>
  <variable name="x298_260" index="179285" value="1"/>
  <variable name="x299_455" index="180080" value="1"/>
  <variable name="x300_68" index="180293" value="1"/>
  <variable name="x301_309" index="181134" value="1"/>
  <variable name="x302_136" index="181561" value="1"/>
  <variable name="x303_179" index="182204" value="1"/>
  <variable name="x304_356" index="182981" value="1"/>
  <variable name="x305_237" index="183462" value="1"/>
  <variable name="x306_463" index="184288" value="1"/>
  <variable name="x307_343" index="184768" value="1"/>
  <variable name="x308_445" index="185470" value="1"/>
  <variable name="x309_20" index="185645" value="1"/>
  <variable name="x310_336" index="186561" value="1"/>
  <variable name="x311_227" index="187052" value="1"/>
  <variable name="x312_325" index="187750" value="1"/>
  <variable name="x313_590" index="188615" value="1"/>
  <variable name="x314_64" index="188689" value="1"/>
  <variable name="x315_83" index="189308" value="1"/>
  <variable name="x316_63" index="189888" value="1"/>
  <variable name="x317_580" index="191005" value="1"/>
  <variable name="x318_543" index="191568" value="1"/>
  <variable name="x319_206" index="191831" value="1"/>
  <variable name="x320_78" index="192303" value="1"/>
  <variable name="x321_216" index="193041" value="1"/>
  <variable name="x322_26" index="193451" value="1"/>
  <variable name="x323_188" index="194213" value="1"/>
  <variable name="x324_560" index="195185" value="1"/>
  <variable name="x325_369" index="195594" value="1"/>
  <variable name="x326_328" index="196153" value="1"/>
  <variable name="x327_192" index="196617" value="1"/>
  <variable name="x328_59" index="197084" value="1"/>
  <variable name="x329_300" index="197925" value="1"/>
  <variable name="x330_449" index="198674" value="1"/>
  <variable name="x331_567" index="199392" value="1"/>
  <variable name="x332_321" index="199746" value="1"/>
  <variable name="x333_175" index="200200" value="1"/>
  <variable name="x334_169" index="200794" value="1"/>
  <variable name="x335_109" index="201334" value="1"/>
  <variable name="x336_492" index="202317" value="1"/>
  <variable name="x337_414" index="202839" value="1"/>
  <variable name="x338_511" index="203536" value="1"/>
  <variable name="x339_438" index="204063" value="1"/>
  <variable name="x340_484" index="204709" value="1"/>
  <variable name="x341_373" index="205198" value="1"/>
  <variable name="x342_561" index="205986" value="1"/>
  <variable name="x343_303" index="206328" value="1"/>
  <variable name="x344_236" index="206861" value="1"/>
  <variable name="x345_217" index="207442" value="1"/>
  <variable name="x346_124" index="207949" value="1"/>
  <variable name="x347_7" index="208432" value="1"/>
  <variable name="x348_138" index="209163" value="1"/>
  <variable name="x349_113" index="209738" value="1"/>
  <variable name="x350_318" index="210543" value="1"/>
  <variable name="x351_16" index="210841" value="1"/>
  <variable name="x352_204" index="211629" value="1"/>
  <variable name="x353_234" index="212259" value="1"/>
  <variable name="x354_254" index="212879" value="1"/>
  <variable name="x355_240" index="213465" value="1"/>
  <variable name="x356_199" index="214024" value="1"/>
  <variable name="x357_53" index="214478" value="1"/>
  <variable name="x358_189" index="215214" value="1"/>
  <variable name="x359_13" index="215638" value="1"/>
  <variable name="x360_406" index="216631" value="1"/>
  <variable name="x361_503" index="217328" value="1"/>
  <variable name="x362_504" index="217929" value="1"/>
  <variable name="x363_412" index="218437" value="1"/>
  <variable name="x364_327" index="218952" value="1"/>
  <variable name="x365_541" index="219766" value="1"/>
  <variable name="x366_252" index="220077" value="1"/>
  <variable name="x367_571" index="220996" value="1"/>
  <variable name="x368_569" index="221594" value="1"/>
  <variable name="x369_90" index="221715" value="1"/>
  <variable name="x370_372" index="222597" value="1"/>
  <variable name="x371_210" index="223035" value="1"/>
  <variable name="x372_165" index="223590" value="1"/>
  <variable name="x373_527" index="224552" value="1"/>
  <variable name="x374_337" index="224962" value="1"/>
  <variable name="x375_119" index="225344" value="1"/>
  <variable name="x376_79" index="225904" value="1"/>
  <variable name="x377_502" index="226927" value="1"/>
  <variable name="x378_167" index="227192" value="1"/>
  <variable name="x379_501" index="228126" value="1"/>
  <variable name="x380_221" index="228446" value="1"/>
  <variable name="x381_451" index="229276" value="1"/>
  <variable name="x382_302" index="229727" value="1"/>
  <variable name="x383_157" index="230182" value="1"/>
  <variable name="x384_402" index="231027" value="1"/>
  <variable name="x385_198" index="231423" value="1"/>
  <variable name="x386_294" index="232119" value="1"/>
  <variable name="x387_42" index="232467" value="1"/>
  <variable name="x388_258" index="233283" value="1"/>
  <variable name="x389_441" index="234066" value="1"/>
  <variable name="x390_552" index="234777" value="1"/>
  <variable name="x391_392" index="235217" value="1"/>
  <variable name="x392_545" index="235970" value="1"/>
  <variable name="x393_348" index="236373" value="1"/>
  <variable name="x394_122" index="236747" value="1"/>
  <variable name="x395_513" index="237738" value="1"/>
  <variable name="x396_383" index="238208" value="1"/>
  <variable name="x397_591" index="239016" value="1"/>
  <variable name="x398_196" index="239221" value="1"/>
  <variable name="x399_448" index="240073" value="1"/>
  <variable name="x400_364" index="240589" value="1"/>
  <variable name="x401_187" index="241012" value="1"/>
  <variable name="x402_193" index="241618" value="1"/>
  <variable name="x403_340" index="242365" value="1"/>
  <variable name="x404_584" index="243209" value="1"/>
  <variable name="x405_493" index="243718" value="1"/>
  <variable name="x406_381" index="244206" value="1"/>
  <variable name="x407_201" index="244626" value="1"/>
  <variable name="x408_497" index="245522" value="1"/>
  <variable name="x409_334" index="245959" value="1"/>
  <variable name="x410_505" index="246730" value="1"/>
  <variable name="x411_450" index="247275" value="1"/>
  <variable name="x412_546" index="247971" value="1"/>
  <variable name="x413_332" index="248357" value="1"/>
  <variable name="x414_205" index="248830" value="1"/>
  <variable name="x415_304" index="249529" value="1"/>
  <variable name="x416_440" index="250265" value="1"/>
  <variable name="x417_420" index="250845" value="1"/>
  <variable name="x418_470" index="251495" value="1"/>
  <variable name="x419_308" index="251933" value="1"/>
  <variable name="x420_538" index="252763" value="1"/>
  <variable name="x421_572" index="253397" value="1"/>
  <variable name="x422_114" index="253539" value="1"/>
  <variable name="x423_132" index="254157" value="1"/>
  <variable name="x424_116" index="254741" value="1"/>
  <variable name="x425_24" index="255249" value="1"/>
  <variable name="x426_286" index="256111" value="1"/>
  <variable name="x427_350" index="256775" value="1"/>
  <variable name="x428_261" index="257286" value="1"/>
  <variable name="x429_544" index="258169" value="1"/>
  <variable name="x430_156" index="258381" value="1"/>
  <variable name="x431_458" index="259283" value="1"/>
  <variable name="x432_185" index="259610" value="1"/>
  <variable name="x433_443" index="260468" value="1"/>
  <variable name="x434_12" index="260637" value="1"/>
  <variable name="x435_305" index="261530" value="1"/>
  <variable name="x436_467" index="262292" value="1"/>
  <variable name="x437_461" index="262886" value="1"/>
  <variable name="x438_164" index="263189" value="1"/>
  <variable name="x439_299" index="263924" value="1"/>
  <variable name="x440_355" index="264580" value="1"/>
  <variable name="x441_80" index="264905" value="1"/>
  <variable name="x442_233" index="265658" value="1"/>
  <variable name="x443_155" index="266180" value="1"/>
  <variable name="x444_248" index="266873" value="1"/>
  <variable name="x445_177" index="267402" value="1"/>
  <variable name="x446_253" index="268078" value="1"/>
  <variable name="x447_329" index="268754" value="1"/>
  <variable name="x448_85" index="269110" value="1"/>
  <variable name="x449_398" index="270023" value="1"/>
  <variable name="x450_534" index="270759" value="1"/>
  <variable name="x451_506" index="271331" value="1"/>
  <variable name="x452_554" index="271979" value="1"/>
  <variable name="x453_27" index="272052" value="1"/>
  <variable name="x454_291" index="272916" value="1"/>
  <variable name="x455_92" index="273317" value="1"/>
  <variable name="x456_404" index="274229" value="1"/>
  <variable name="x457_112" index="274537" value="1"/>
  <variable name="x458_81" index="275106" value="1"/>
  <variable name="x459_366" index="275991" value="1"/>
  <variable name="x460_280" index="276505" value="1"/>
  <variable name="x461_587" index="277412" value="1"/>
  <variable name="x462_143" index="277568" value="1"/>
  <variable name="x463_147" index="278172" value="1"/>
  <variable name="x464_357" index="278982" value="1"/>
  <variable name="x465_54" index="279279" value="1"/>
  <variable name="x466_574" index="280399" value="1"/>
  <variable name="x467_316" index="280741" value="1"/>
  <variable name="x468_362" index="281387" value="1"/>
  <variable name="x469_432" index="282057" value="1"/>
  <variable name="x470_110" index="282335" value="1"/>
  <variable name="x471_536" index="283361" value="1"/>
  <variable name="x472_417" index="283842" value="1"/>
  <variable name="x473_67" index="284092" value="1"/>
  <variable name="x474_120" index="284745" value="1"/>
  <variable name="x475_338" index="285563" value="1"/>
  <variable name="x476_182" index="286007" value="1"/>
  <variable name="x477_191" index="286616" value="1"/>
  <variable name="x478_547" index="287572" value="1"/>
  <variable name="x479_295" index="287920" value="1"/>
  <variable name="x480_128" index="288353" value="1"/>
  <variable name="x481_71" index="288896" value="1"/>
  <variable name="x482_363" index="289788" value="1"/>
  <variable name="x483_589" index="290614" value="1"/>
  <variable name="x484_255" index="290880" value="1"/>
  <variable name="x485_77" index="291302" value="1"/>
  <variable name="x486_219" index="292044" value="1"/>
  <variable name="x487_39" index="292464" value="1"/>
  <variable name="x488_65" index="293090" value="1"/>
  <variable name="x489_482" index="294107" value="1"/>
  <variable name="x490_315" index="294540" value="1"/>
  <variable name="x491_0" index="294825" value="1"/>
  <variable name="x492_314" index="295739" value="1"/>
  <variable name="x493_500" index="296525" value="1"/>
  <variable name="x494_413" index="297038" value="1"/>
  <variable name="x495_594" index="297819" value="1"/>
  <variable name="x496_23" index="297848" value="1"/>
  <variable name="x497_243" index="298668" value="1"/>
  <variable name="x498_220" index="299245" value="1"/>
  <variable name="x499_203" index="299828" value="1"/>
  <variable name="x500_111" index="300336" value="1"/>
  <variable name="x501_480" index="301305" value="1"/>
  <variable name="x502_271" index="301696" value="1"/>
  <variable name="x503_139" index="302164" value="1"/>
  <variable name="x504_435" index="303060" value="1"/>
  <variable name="x505_272" index="303497" value="1"/>
  <variable name="x506_301" index="304126" value="1"/>
  <variable name="x507_151" index="304576" value="1"/>
  <variable name="x508_510" index="305535" value="1"/>
  <variable name="x509_433" index="306058" value="1"/>
  <variable name="x510_596" index="306821" value="1"/>
  <variable name="x511_488" index="307313" value="1"/>
  <variable name="x512_282" index="307707" value="1"/>
  <variable name="x513_530" index="308555" value="1"/>
  <variable name="x514_531" index="309156" value="1"/>
  <variable name="x515_576" index="309801" value="1"/>
  <variable name="x516_40" index="309865" value="1"/>
  <variable name="x517_473" index="310898" value="1"/>
  <variable name="x518_207" index="311232" value="1"/>
  <variable name="x519_82" index="311707" value="1"/>
  <variable name="x520_389" index="312614" value="1"/>
  <variable name="x521_141" index="312966" value="1"/>
  <variable name="x522_563" index="313988" value="1"/>
  <variable name="x523_529" index="314554" value="1"/>
  <variable name="x524_466" index="315091" value="1"/>
  <variable name="x525_3" index="315228" value="1"/>
  <variable name="x526_146" index="315971" value="1"/>
  <variable name="x527_44" index="316469" value="1"/>
  <variable name="x528_559" index="317584" value="1"/>
  <variable name="x529_323" index="317948" value="1"/>
  <variable name="x530_444" index="318669" value="1"/>
  <variable name="x531_127" index="318952" value="1"/>
  <variable name="x532_424" index="319849" value="1"/>
  <variable name="x533_320" index="320345" value="1"/>
  <variable name="x534_409" index="321034" value="1"/>
  <variable name="x535_436" index="321661" value="1"/>
  <variable name="x536_519" index="322344" value="1"/>
  <variable name="x537_586" index="323011" value="1"/>
  <variable name="x538_142" index="323167" value="1"/>
  <variable name="x539_322" index="323947" value="1"/>
  <variable name="x540_566" index="324791" value="1"/>
  <variable name="x541_131" index="324956" value="1"/>
  <variable name="x542_129" index="325554" value="1"/>
  <variable name="x543_11" index="326036" value="1"/>
  <variable name="x544_130" index="326755" value="1"/>
  <variable name="x545_49" index="327274" value="1"/>
  <variable name="x546_145" index="327970" value="1"/>
  <variable name="x547_378" index="328803" value="1"/>
  <variable name="x548_296" index="329321" value="1"/>
  <variable name="x549_115" index="329740" value="1"/>
  <variable name="x550_358" index="330583" value="1"/>
  <variable name="x551_173" index="330998" value="1"/>
  <variable name="x552_32" index="331457" value="1"/>
  <variable name="x553_472" index="332497" value="1"/>
  <variable name="x554_558" index="333183" value="1"/>
  <variable name="x555_276" index="333501" value="1"/>
  <variable name="x556_481" index="334306" value="1"/>
  <variable name="x557_170" index="334595" value="1"/>
  <variable name="x558_415" index="335440" value="1"/>
  <variable name="x559_507" index="336132" value="1"/>
  <variable name="x560_232" index="336457" value="1"/>
  <variable name="x561_106" index="336931" value="1"/>
  <variable name="x562_266" index="337691" value="1"/>
  <variable name="x563_133" index="338158" value="1"/>
  <variable name="x564_8" index="338633" value="1"/>
  <variable name="x565_442" index="339667" value="1"/>
  <variable name="x566_14" index="339839" value="1"/>
  <variable name="x567_423" index="340848" value="1"/>
  <variable name="x568_557" index="341582" value="1"/>
  <variable name="x569_33" index="341658" value="1"/>
  <variable name="x570_84" index="342309" value="1"/>
  <variable name="x571_564" index="343389" value="1"/>
  <variable name="x572_386" index="343811" value="1"/>
  <variable name="x573_407" index="344432" value="1"/>
  <variable name="x574_285" index="344910" value="1"/>
  <variable name="x575_160" index="345385" value="1"/>
  <variable name="x576_218" index="346043" value="1"/>
  <variable name="x577_522" index="346947" value="1"/>
  <variable name="x578_396" index="347421" value="1"/>
  <variable name="x579_499" index="348124" value="1"/>
  <variable name="x580_52" index="348277" value="1"/>
  <variable name="x581_548" index="349373" value="1"/>
  <variable name="x582_542" index="349967" value="1"/>
  <variable name="x583_573" index="350598" value="1"/>
  <variable name="x584_267" index="350892" value="1"/>
  <variable name="x585_30" index="351255" value="1"/>
  <variable name="x586_310" index="352135" value="1"/>
  <variable name="x587_521" index="352946" value="1"/>
  <variable name="x588_223" index="353248" value="1"/>
  <variable name="x589_539" index="354164" value="1"/>
  <variable name="x590_228" index="354453" value="1"/>
  <variable name="x591_399" index="355224" value="1"/>
  <variable name="x592_351" index="355776" value="1"/>
  <variable name="x593_394" index="356419" value="1"/>
  <variable name="x594_275" index="356900" value="1"/>
  <variable name="x595_284" index="357509" value="1"/>
  <variable name="x596_202" index="358027" value="1"/>
  <variable name="x597_18" index="358443" value="1"/>
  <variable name="x598_397" index="359422" value="1"/>
  <variable name="x599_585" index="360210" value="1"/>
  <variable name="k0" index="360225" value="1"/>
  <variable name="k2" index="360227" value="1"/>
  <variable name="k3" index="360228" value="1"/>
  <variable name="k4" index="360229" value="1"/>
  <variable name="k5" index="360230" value="1"/>
  <variable name="k10" index="360235" value="1"/>
  <variable name="k11" index="360236" value="1"/>
  <variable name="u0" index="360240" value="1"/>
  <variable name="u1" index="360241" value="1"/>
  <variable name="u3" index="360243" value="1"/>
  <variable name="u5" index="360245" value="1"/>
  <variable name="u6" index="360246" value="1"/>
  <variable name="u9" index="360249" value="1"/>
  <variable name="u12" index="360252" value="1"/>
  <variable name="u13" index="360253" value="1"/>
  <variable name="u14" index="360254" value="1"/>
 </variables>
</CPLEXSolution>
